
(set-logic ALL) 

(declare-datatype MyList ((Nil) (Cons (head Real) (tail MyList)) )) 
(declare-fun l0 () MyList) 
(declare-fun l1 () MyList) 
(declare-fun l2 () MyList) 
(declare-fun l3 () MyList) 
(declare-fun i0 () Real) 
(declare-fun i1 () Real) 
(assert (not (= l1 Nil)) )
(assert (or (= l1 Nil) (= l0 Nil)) )
(assert (not (is-Cons Nil)) )
(assert (is-Nil l2) )
(assert (and (= l3 l0) (= l0 l1)) )
(assert (is-Cons l3) )
(assert (or (= l2 Nil) (= l0 l0)) )
(assert (= l1 Nil) )
(check-sat)
